p cnf 31 79
a 27 20 0
e 1 2 3 4 5 6 7 8 9 10 11 12 13 14 15 16 17 18 19 21 22 23 24 25 26 28 29 30 31 0
-3 -1 0
-3 2 0
1 -2 3 0
6 4 0
6 -5 0
-4 5 -6 0
-7 -3 0
-7 -6 0
3 6 7 0
-9 -8 0
-9 -2 0
8 2 9 0
7 -9 -10 0
-7 9 -10 0
7 9 10 0
-7 -9 10 0
12 -1 0
12 11 0
1 -11 -12 0
-13 12 0
-13 -5 0
-12 5 13 0
-16 -14 0
-16 15 0
14 -15 16 0
8 -11 -17 0
-8 11 -17 0
8 11 17 0
-8 -11 17 0
-18 -16 0
-18 -17 0
16 17 18 0
13 -18 -19 0
-13 18 -19 0
13 18 19 0
-13 -18 19 0
-4 20 -21 0
4 -20 -21 0
-4 -20 21 0
4 20 21 0
-20 -3 -22 0
20 3 -22 0
-20 3 22 0
20 -3 22 0
-22 -23 -24 0
22 23 -24 0
-22 23 24 0
22 -23 24 0
25 21 0
25 -24 0
-21 24 -25 0
19 -25 -26 0
-19 25 -26 0
19 25 26 0
-19 -25 26 0
-10 26 -27 0
10 -26 -27 0
-10 -26 27 0
10 26 27 0
-28 -16 0
-28 -17 0
16 17 28 0
29 -1 0
29 -4 0
1 4 -29 0
-30 28 0
-30 29 0
-28 -29 30 0
31 -27 0
31 30 0
27 -30 -31 0
6 23 30 29 7 26 0
-25 -29 2 4 -18 16 0
-8 -22 -17 1 21 2 31 0
-31 -28 12 0
12 -3 -6 -24 0
25 2 28 0
26 -8 5 23 16 -13 0
31 0
